The Centers: 
[ 1,3,10,15,18,19,21,25,27,29,32,34,35,38,40,42,45,50,54,56,58,60,61,64,69,71,72,76,79,83,87,94,100,102,103,108,109,110,117,118,128,130,131,133,137,138,140,141,144,148,151,152,153,154,159,163,166,168,173,175,180,182,184,187,189,191,193,197,198,199,200,203,205,208,210,213,228,229,230,233,234,239,240,245,250,259,262,265,266,268,270,271,272,276,278,283,291,293,294,301,307,308,312,316,319,324,325,329,341,344,346,356,361,362,363,367,368,369,372,382,383,390,392,393,397 ] 
Total Cost: 210241